p cnf 166 118
c p distribution  0.875 0.125
c p distribution  0.875 0.125
c p distribution  0.875 0.125
c p distribution  0.875 0.125
c p distribution  0.875 0.125
c p distribution  0.875 0.125
c p distribution  0.875 0.125
c p distribution  0.875 0.125
c p distribution  0.875 0.125
c p distribution  0.875 0.125
c p distribution  0.875 0.125
c p distribution  0.875 0.125
c p distribution  0.875 0.125
c p distribution  0.875 0.125
c p distribution  0.875 0.125
c p distribution  0.875 0.125
c p distribution  0.875 0.125
c p distribution  0.875 0.125
c p distribution  0.875 0.125
c p distribution  0.875 0.125
c p distribution  0.875 0.125
c p distribution  0.875 0.125
c p distribution  0.875 0.125
c p distribution  0.875 0.125
c p distribution  0.875 0.125
c p distribution  0.875 0.125
c p distribution  0.875 0.125
c p distribution  0.875 0.125
c p distribution  0.875 0.125
c p distribution  0.875 0.125
c p distribution  0.875 0.125
c p distribution  0.875 0.125
c p distribution  0.875 0.125
c p distribution  0.875 0.125
c p distribution  0.875 0.125
c p distribution  0.875 0.125
c p distribution  0.875 0.125
c p distribution  0.875 0.125
c p distribution  0.875 0.125
c p distribution  0.875 0.125
c p distribution  0.875 0.125
c p distribution  0.875 0.125
c p distribution  0.875 0.125
c p distribution  0.875 0.125
c p distribution  0.875 0.125
c p distribution  0.875 0.125
c p distribution  0.875 0.125
c p distribution  0.875 0.125
c p distribution  0.875 0.125
c p distribution  0.875 0.125
c p distribution  0.875 0.125
c p distribution  0.875 0.125
c p distribution  0.875 0.125
c p distribution  0.875 0.125
c p distribution  0.875 0.125
c p distribution  0.875 0.125
c p distribution  0.875 0.125
c p distribution  0.875 0.125
146 0
-133 0
120 -119 -1 0
119 -120 -1 0
130 -160 -3 0
160 -130 -3 0
150 -146 -5 0
146 -150 -5 0
154 -157 -7 0
157 -154 -7 0
127 -133 -9 0
133 -127 -9 0
161 -147 -11 0
147 -161 -11 0
123 -151 -13 0
151 -123 -13 0
146 -131 -15 0
131 -146 -15 0
121 -127 -17 0
127 -121 -17 0
147 -118 -19 0
118 -147 -19 0
135 -146 -21 0
146 -135 -21 0
150 -137 -23 0
137 -150 -23 0
159 -142 -25 0
142 -159 -25 0
158 -162 -27 0
162 -158 -27 0
121 -142 -29 0
142 -121 -29 0
146 -160 -31 0
160 -146 -31 0
138 -153 -33 0
153 -138 -33 0
159 -149 -35 0
149 -159 -35 0
151 -128 -37 0
128 -151 -37 0
129 -123 -39 0
123 -129 -39 0
157 -143 -41 0
143 -157 -41 0
129 -144 -43 0
144 -129 -43 0
158 -144 -45 0
144 -158 -45 0
142 -155 -47 0
155 -142 -47 0
120 -165 -49 0
165 -120 -49 0
149 -130 -51 0
130 -149 -51 0
145 -117 -53 0
117 -145 -53 0
119 -134 -55 0
134 -119 -55 0
140 -132 -57 0
132 -140 -57 0
125 -139 -59 0
139 -125 -59 0
145 -124 -61 0
124 -145 -61 0
166 -154 -63 0
154 -166 -63 0
157 -152 -65 0
152 -157 -65 0
120 -132 -67 0
132 -120 -67 0
135 -147 -69 0
147 -135 -69 0
138 -131 -71 0
131 -138 -71 0
125 -139 -73 0
139 -125 -73 0
156 -137 -75 0
137 -156 -75 0
150 -133 -77 0
133 -150 -77 0
137 -128 -79 0
128 -137 -79 0
125 -139 -81 0
139 -125 -81 0
149 -143 -83 0
143 -149 -83 0
150 -145 -85 0
145 -150 -85 0
122 -152 -87 0
152 -122 -87 0
162 -150 -89 0
150 -162 -89 0
145 -117 -91 0
117 -145 -91 0
164 -163 -93 0
163 -164 -93 0
164 -121 -95 0
121 -164 -95 0
130 -122 -97 0
122 -130 -97 0
124 -162 -99 0
162 -124 -99 0
146 -124 -101 0
124 -146 -101 0
163 -153 -103 0
153 -163 -103 0
136 -165 -105 0
165 -136 -105 0
140 -160 -107 0
160 -140 -107 0
163 -141 -109 0
141 -163 -109 0
148 -143 -111 0
143 -148 -111 0
148 -138 -113 0
138 -148 -113 0
166 -126 -115 0
126 -166 -115 0

